p edge 180 900
e 1 12
e 1 17
e 1 18
e 1 113
e 1 173
e 2 29
e 2 48
e 2 96
e 2 108
e 2 175
e 3 46
e 3 62
e 3 90
e 3 99
e 3 116
e 4 38
e 4 69
e 4 76
e 4 134
e 4 159
e 5 4
e 5 52
e 5 61
e 5 129
e 5 169
e 6 10
e 6 41
e 6 44
e 6 57
e 6 65
e 7 14
e 7 39
e 7 44
e 7 54
e 7 87
e 8 49
e 8 59
e 8 125
e 8 161
e 8 180
e 9 70
e 9 109
e 9 118
e 9 138
e 9 178
e 10 4
e 10 37
e 10 85
e 10 151
e 10 165
e 11 60
e 11 84
e 11 138
e 11 171
e 11 173
e 12 65
e 12 66
e 12 66
e 12 150
e 12 151
e 13 43
e 13 75
e 13 107
e 13 120
e 13 130
e 14 3
e 14 43
e 14 45
e 14 56
e 14 98
e 15 5
e 15 129
e 15 136
e 15 137
e 15 148
e 16 49
e 16 60
e 16 63
e 16 132
e 16 142
e 17 4
e 17 29
e 17 41
e 17 69
e 17 167
e 18 11
e 18 23
e 18 72
e 18 89
e 18 106
e 19 62
e 19 122
e 19 130
e 19 151
e 19 179
e 20 6
e 20 99
e 20 117
e 20 121
e 20 125
e 21 43
e 21 67
e 21 69
e 21 82
e 21 126
e 22 39
e 22 43
e 22 79
e 22 105
e 22 137
e 23 1
e 23 43
e 23 105
e 23 178
e 23 179
e 24 60
e 24 122
e 24 153
e 24 157
e 24 160
e 25 11
e 25 34
e 25 72
e 25 106
e 25 129
e 26 11
e 26 37
e 26 72
e 26 82
e 26 134
e 27 4
e 27 62
e 27 75
e 27 80
e 27 161
e 28 40
e 28 40
e 28 77
e 28 102
e 28 120
e 29 34
e 29 74
e 29 109
e 29 162
e 29 171
e 30 21
e 30 116
e 30 147
e 30 147
e 30 165
e 31 37
e 31 61
e 31 71
e 31 165
e 31 171
e 32 43
e 32 47
e 32 68
e 32 97
e 32 106
e 33 34
e 33 97
e 33 139
e 33 140
e 33 168
e 34 16
e 34 40
e 34 93
e 34 149
e 34 173
e 35 71
e 35 103
e 35 130
e 35 171
e 35 177
e 36 67
e 36 74
e 36 142
e 36 151
e 36 168
e 37 13
e 37 45
e 37 116
e 37 122
e 37 180
e 38 11
e 38 20
e 38 82
e 38 140
e 38 165
e 39 21
e 39 66
e 39 92
e 39 108
e 39 152
e 40 3
e 40 48
e 40 85
e 40 169
e 40 171
e 41 1
e 41 23
e 41 59
e 41 64
e 41 125
e 42 50
e 42 62
e 42 117
e 42 150
e 42 151
e 43 53
e 43 54
e 43 73
e 43 153
e 43 165
e 44 3
e 44 46
e 44 86
e 44 98
e 44 171
e 45 3
e 45 39
e 45 63
e 45 80
e 45 161
e 46 15
e 46 39
e 46 85
e 46 111
e 46 114
e 47 22
e 47 78
e 47 90
e 47 100
e 47 111
e 48 13
e 48 15
e 48 56
e 48 137
e 48 139
e 49 34
e 49 65
e 49 90
e 49 93
e 49 180
e 50 56
e 50 60
e 50 101
e 50 117
e 50 151
e 51 14
e 51 23
e 51 115
e 51 125
e 51 180
e 52 9
e 52 42
e 52 68
e 52 86
e 52 165
e 53 7
e 53 27
e 53 74
e 53 75
e 53 122
e 54 5
e 54 126
e 54 143
e 54 143
e 54 160
e 55 62
e 55 103
e 55 104
e 55 147
e 55 165
e 56 49
e 56 88
e 56 113
e 56 169
e 56 170
e 57 19
e 57 79
e 57 128
e 57 157
e 57 169
e 58 49
e 58 74
e 58 91
e 58 124
e 58 129
e 59 9
e 59 12
e 59 31
e 59 74
e 59 74
e 60 9
e 60 67
e 60 115
e 60 128
e 60 145
e 61 33
e 61 49
e 61 67
e 61 70
e 61 141
e 62 11
e 62 18
e 62 30
e 62 97
e 62 164
e 63 14
e 63 114
e 63 124
e 63 138
e 63 177
e 64 46
e 64 84
e 64 113
e 64 127
e 64 153
e 65 77
e 65 116
e 65 127
e 65 129
e 65 178
e 66 10
e 66 18
e 66 77
e 66 121
e 66 135
e 67 1
e 67 9
e 67 22
e 67 83
e 67 165
e 68 17
e 68 51
e 68 69
e 68 90
e 68 128
e 69 63
e 69 65
e 69 80
e 69 118
e 69 135
e 70 7
e 70 49
e 70 63
e 70 164
e 70 180
e 71 21
e 71 81
e 71 108
e 71 124
e 71 162
e 72 19
e 72 80
e 72 96
e 72 132
e 72 161
e 73 15
e 73 76
e 73 80
e 73 93
e 73 129
e 74 28
e 74 30
e 74 50
e 74 51
e 74 85
e 75 66
e 75 84
e 75 85
e 75 110
e 75 136
e 76 20
e 76 101
e 76 116
e 76 178
e 76 179
e 77 90
e 77 130
e 77 132
e 77 160
e 77 168
e 78 6
e 78 13
e 78 36
e 78 84
e 78 89
e 79 11
e 79 70
e 79 85
e 79 103
e 79 159
e 80 21
e 80 70
e 80 87
e 80 123
e 80 142
e 81 8
e 81 93
e 81 121
e 81 162
e 81 163
e 82 19
e 82 22
e 82 42
e 82 64
e 82 118
e 83 106
e 83 117
e 83 130
e 83 151
e 83 154
e 84 78
e 84 115
e 84 132
e 84 148
e 84 151
e 85 65
e 85 75
e 85 119
e 85 138
e 85 167
e 86 33
e 86 46
e 86 121
e 86 129
e 86 159
e 87 7
e 87 7
e 87 41
e 87 141
e 87 167
e 88 19
e 88 55
e 88 73
e 88 77
e 88 93
e 89 11
e 89 48
e 89 77
e 89 110
e 89 127
e 90 11
e 90 12
e 90 35
e 90 52
e 90 121
e 91 74
e 91 93
e 91 98
e 91 128
e 91 168
e 92 33
e 92 47
e 92 115
e 92 116
e 92 170
e 93 51
e 93 51
e 93 73
e 93 160
e 93 172
e 94 10
e 94 101
e 94 135
e 94 156
e 94 170
e 95 28
e 95 34
e 95 102
e 95 141
e 95 152
e 96 44
e 96 47
e 96 71
e 96 89
e 96 179
e 97 7
e 97 57
e 97 118
e 97 125
e 97 133
e 98 2
e 98 18
e 98 106
e 98 110
e 98 161
e 99 18
e 99 19
e 99 80
e 99 113
e 99 126
e 100 4
e 100 54
e 100 76
e 100 134
e 100 159
e 101 10
e 101 68
e 101 78
e 101 104
e 101 167
e 102 19
e 102 58
e 102 58
e 102 95
e 102 172
e 103 1
e 103 20
e 103 70
e 103 72
e 103 159
e 104 49
e 104 66
e 104 116
e 104 175
e 104 179
e 105 2
e 105 38
e 105 154
e 105 164
e 105 174
e 106 19
e 106 71
e 106 75
e 106 80
e 106 98
e 107 44
e 107 140
e 107 143
e 107 150
e 107 174
e 108 52
e 108 68
e 108 68
e 108 74
e 108 155
e 109 43
e 109 83
e 109 153
e 109 165
e 109 171
e 110 16
e 110 42
e 110 102
e 110 138
e 110 152
e 111 8
e 111 35
e 111 39
e 111 72
e 111 138
e 112 2
e 112 18
e 112 38
e 112 152
e 112 172
e 113 55
e 113 81
e 113 99
e 113 109
e 113 171
e 114 17
e 114 122
e 114 126
e 114 131
e 114 137
e 115 100
e 115 112
e 115 117
e 115 143
e 115 166
e 116 5
e 116 39
e 116 41
e 116 107
e 116 139
e 117 31
e 117 53
e 117 82
e 117 105
e 117 163
e 118 1
e 118 40
e 118 146
e 118 177
e 118 178
e 119 4
e 119 37
e 119 85
e 119 87
e 119 108
e 120 58
e 120 66
e 120 80
e 120 125
e 120 160
e 121 57
e 121 112
e 121 131
e 121 146
e 121 168
e 122 19
e 122 66
e 122 110
e 122 124
e 122 161
e 123 6
e 123 30
e 123 112
e 123 130
e 123 165
e 124 16
e 124 26
e 124 75
e 124 152
e 124 156
e 125 29
e 125 50
e 125 55
e 125 94
e 125 163
e 126 3
e 126 46
e 126 99
e 126 143
e 126 147
e 127 18
e 127 25
e 127 34
e 127 83
e 127 111
e 128 7
e 128 14
e 128 75
e 128 107
e 128 135
e 129 75
e 129 94
e 129 115
e 129 144
e 129 148
e 130 18
e 130 24
e 130 34
e 130 163
e 130 180
e 131 36
e 131 40
e 131 111
e 131 129
e 131 149
e 132 4
e 132 27
e 132 55
e 132 138
e 132 153
e 133 31
e 133 38
e 133 74
e 133 156
e 133 172
e 134 80
e 134 84
e 134 129
e 134 152
e 134 166
e 135 19
e 135 37
e 135 98
e 135 111
e 135 112
e 136 22
e 136 84
e 136 99
e 136 131
e 136 156
e 137 25
e 137 91
e 137 132
e 137 142
e 137 176
e 138 50
e 138 70
e 138 94
e 138 94
e 138 166
e 139 25
e 139 32
e 139 66
e 139 131
e 139 144
e 140 10
e 140 27
e 140 106
e 140 144
e 140 169
e 141 32
e 141 110
e 141 128
e 141 136
e 141 180
e 142 37
e 142 52
e 142 58
e 142 147
e 142 164
e 143 57
e 143 82
e 143 114
e 143 121
e 143 146
e 144 5
e 144 19
e 144 91
e 144 96
e 144 172
e 145 33
e 145 43
e 145 80
e 145 137
e 145 158
e 146 42
e 146 51
e 146 82
e 146 105
e 146 113
e 147 4
e 147 55
e 147 101
e 147 155
e 147 168
e 148 11
e 148 33
e 148 84
e 148 86
e 148 179
e 149 31
e 149 74
e 149 108
e 149 120
e 149 151
e 150 88
e 150 135
e 150 140
e 150 163
e 150 175
e 151 16
e 151 73
e 151 74
e 151 103
e 151 105
e 152 35
e 152 57
e 152 64
e 152 65
e 152 159
e 153 20
e 153 21
e 153 53
e 153 59
e 153 67
e 154 4
e 154 123
e 154 140
e 154 162
e 154 163
e 155 48
e 155 89
e 155 104
e 155 165
e 155 173
e 156 76
e 156 82
e 156 103
e 156 157
e 156 175
e 157 18
e 157 23
e 157 28
e 157 106
e 157 152
e 158 10
e 158 42
e 158 59
e 158 59
e 158 117
e 159 48
e 159 74
e 159 103
e 159 114
e 159 164
e 160 27
e 160 49
e 160 98
e 160 121
e 160 125
e 161 85
e 161 115
e 161 119
e 161 156
e 161 169
e 162 79
e 162 96
e 162 97
e 162 153
e 162 172
e 163 70
e 163 72
e 163 94
e 163 133
e 163 180
e 164 17
e 164 96
e 164 125
e 164 147
e 164 151
e 165 40
e 165 50
e 165 59
e 165 61
e 165 169
e 166 42
e 166 95
e 166 118
e 166 150
e 166 154
e 167 8
e 167 90
e 167 117
e 167 127
e 167 139
e 168 33
e 168 44
e 168 67
e 168 72
e 168 128
e 169 31
e 169 62
e 169 63
e 169 76
e 169 143
e 170 31
e 170 35
e 170 36
e 170 140
e 170 171
e 171 34
e 171 95
e 171 112
e 171 135
e 171 178
e 172 4
e 172 55
e 172 102
e 172 122
e 172 141
e 173 28
e 173 54
e 173 63
e 173 124
e 173 162
e 174 17
e 174 65
e 174 77
e 174 156
e 174 166
e 175 23
e 175 52
e 175 111
e 175 118
e 175 173
e 176 13
e 176 22
e 176 107
e 176 173
e 176 175
e 177 9
e 177 16
e 177 56
e 177 98
e 177 134
e 178 43
e 178 98
e 178 100
e 178 124
e 178 140
e 179 28
e 179 50
e 179 77
e 179 78
e 179 95
e 180 49
e 180 63
e 180 88
e 180 133
e 180 142
